Route #1: 1 7 8 21 15 28 35 49 61 67 68 57 45 36 37 50 46 62 77 69 86 80 85 93 95 96 87 94 97 81 70 71 63 51 58 47 38 29 22 16 2 17 23 9 18 30 39 52 48 40 41 54 53 64 59 73 74 75 65 60 55 42 43 27 33 26 25 24 32 31 19 3 10 11 12 4 13 5 14 6 20 34 44 56 66 79 76 84 83 92 91 90 100 99 98 88 89 82 78 72
Cost 43942
